SCIP version 5.0.0 [precision: 8 byte] [memory: block] [mode: optimized] [LP solver: NONE] [GitHash: 3bbd232]
Copyright (C) 2002-2017 Konrad-Zuse-Zentrum fuer Informationstechnik Berlin (ZIB)

External codes: 
  Readline EditLine w  GNU library for command line editing (gnu.org/s/readline)
  CppAD 20160000.1     Algorithmic Differentiation of C++ algorithms developed by B. Bell (www.coin-or.org/CppAD)
  ZLIB 1.2.5           General purpose compression library by J. Gailly and M. Adler (zlib.net)
  GMP 6.1.2            GNU Multiple Precision Arithmetic Library developed by T. Granlund (gmplib.org)

user parameter file <scip.set> not found - using default parameters

read problem <../../Split_data/output/statG/5/0_sample_statG.logreg>
============

File name	:	../../Split_data/output/statG/5/0_sample_statG.logreg
Problem name 	:	0_sample_statG
Number of data	:	800
Number of var	:	61
The given data has linear dependence
13 sets of column vector are linearly dependent:

[dim=1] time: 0.035955
[dim=2] time: 0.075586
[dim=3] time: 0.115989
[dim=4] time: 0.154775
[dim=5] time: 0.193861
[dim=6] time: 0.234545
[dim=7] time: 0.274845
[dim=8] time: 0.314727
[dim=9] time: 0.355006
[dim=10] time: 0.40199
[dim=11] time: 0.443853
[dim=12] time: 0.490575
[dim=13] time: 0.532268
[dim=14] time: 0.573157
[dim=15] time: 0.622028
[dim=16] time: 0.6626
[dim=17] time: 0.702858
[dim=18] time: 0.743653
[dim=19] time: 0.792859
[dim=20] time: 0.83485
[dim=21] time: 0.874935
[dim=22] time: 0.913727
[dim=23] time: 0.951265
[dim=24] time: 0.99188
[dim=25] Time of forward = 1.02883sec.
AIC: 792.576
k: 24

[dim=48] time: 0.121054
[dim=47] time: 0.183306
[dim=46] time: 0.252377
[dim=45] time: 0.327555
[dim=44] time: 0.395132
[dim=43] time: 0.454816
[dim=42] time: 0.505748
[dim=41] time: 0.558793
[dim=40] time: 0.612233
[dim=39] time: 0.673599
[dim=38] time: 0.733317
[dim=37] time: 0.792468
[dim=36] time: 0.839794
[dim=35] time: 0.90436
[dim=34] time: 0.953696
[dim=33] time: 0.996061
[dim=32] time: 1.05781
[dim=31] time: 1.10707
[dim=30] time: 1.15451
[dim=29] time: 1.19933
[dim=28] time: 1.24147
[dim=27] time: 1.28869
[dim=26] Time of backward = 1.32223sec.
AIC: 793.932
k: 27
